(set-info :source |printed by MathSAT|)
(declare-fun |.x{1}| () Int)
(declare-fun |.x{279}| () Int)
(declare-fun |.x{23}| () (Array Int Int))
(declare-fun |.x{280}| () (Array Int Int))
(declare-fun |.x{3}| () (Array Int Int))
(declare-fun |.x{281}| () (Array Int Int))
(declare-fun |.x{4}| () (Array Int (Array Int Int)))
(declare-fun |.x{282}| () (Array Int (Array Int Int)))
(declare-fun |.x{5}| () (Array Int (Array Int Int)))
(declare-fun |.x{283}| () (Array Int (Array Int Int)))
(declare-fun |.x{27}| () Int)
(declare-fun |.x{284}| () Int)
(declare-fun |.x{7}| () Int)
(declare-fun |.x{285}| () Int)
(declare-fun |.x{8}| () (Array Int Int))
(declare-fun |.x{286}| () (Array Int Int))
(declare-fun |.x{9}| () (Array Int Int))
(declare-fun |.x{287}| () (Array Int Int))
(declare-fun |.x{31}| () Int)
(declare-fun |.x{288}| () Int)
(declare-fun |.x{11}| () Int)
(declare-fun |.x{289}| () Int)
(declare-fun |.x{12}| () Int)
(declare-fun |.x{290}| () Int)
(declare-fun |.x{13}| () Int)
(declare-fun |.x{291}| () Int)
(declare-fun |.x{14}| () Int)
(declare-fun |.x{292}| () Int)
(declare-fun |.x{15}| () Int)
(declare-fun |.x{293}| () Int)
(declare-fun |.x{16}| () Int)
(declare-fun |.x{294}| () Int)
(declare-fun |.x{17}| () Int)
(declare-fun |.x{295}| () Int)
(declare-fun |.x{18}| () Int)
(declare-fun |.x{296}| () Int)
(declare-fun |.x{19}| () Int)
(declare-fun |.x{297}| () Int)
(declare-fun |.x{20}| () Int)
(declare-fun |.x{298}| () Int)
(declare-fun |.x{21}| () Bool)
(declare-fun |.x{257}| () Bool)
(declare-fun |.loc{3}| () Bool)
(declare-fun |.loc{5}| () Bool)
(declare-fun |.loc{4}| () Bool)
(declare-fun |.loc{6}| () Bool)
(declare-fun |.x{145}| () Int)
(declare-fun |.x{83}| () (Array Int Int))
(define-fun .def_50 () Bool (! |.loc{3}| :next |.loc{5}|))
(define-fun .def_115 () Bool (not .def_50))
(define-fun .def_52 () Bool (! |.loc{4}| :next |.loc{6}|))
(define-fun .def_81 () Bool (not .def_52))
(define-fun .def_235 () Bool (and .def_81 .def_115))
(define-fun .def_28 () Int (! |.x{11}| :next |.x{289}|))
(define-fun .def_26 () Int (! |.x{31}| :next |.x{288}|))
(define-fun .def_229 () Bool (= .def_26 .def_28))
(define-fun .def_16 () (Array Int (Array Int Int)) (! |.x{5}| :next |.x{283}|))
(define-fun .def_14 () (Array Int (Array Int Int)) (! |.x{4}| :next |.x{282}|))
(define-fun .def_228 () Bool (= .def_14 .def_16))
(define-fun .def_230 () Bool (and .def_228 .def_229))
(define-fun .def_20 () Int (! |.x{7}| :next |.x{285}|))
(define-fun .def_18 () Int (! |.x{27}| :next |.x{284}|))
(define-fun .def_227 () Bool (= .def_18 .def_20))
(define-fun .def_231 () Bool (and .def_227 .def_230))
(define-fun .def_24 () (Array Int Int) (! |.x{9}| :next |.x{287}|))
(define-fun .def_22 () (Array Int Int) (! |.x{8}| :next |.x{286}|))
(define-fun .def_226 () Bool (= .def_22 .def_24))
(define-fun .def_232 () Bool (and .def_226 .def_231))
(define-fun .def_48 () Bool (! |.x{21}| :next |.x{257}|))
(define-fun .def_225 () Bool (not .def_48))
(define-fun .def_233 () Bool (and .def_225 .def_232))
(define-fun .def_12 () (Array Int Int) (! |.x{3}| :next |.x{281}|))
(define-fun .def_10 () (Array Int Int) (! |.x{23}| :next |.x{280}|))
(define-fun .def_224 () Bool (= .def_10 .def_12))
(define-fun .def_234 () Bool (and .def_224 .def_233))
(define-fun .def_236 () Bool (! (and .def_234 .def_235) :init true))
(define-fun .def_221 () Bool (= .def_16 |.x{283}|))
(define-fun .def_219 () Bool (= .def_12 |.x{281}|))
(define-fun .def_8 () Int (! |.x{1}| :next |.x{279}|))
(define-fun .def_217 () Bool (= .def_8 |.x{279}|))
(define-fun .def_215 () Bool (= .def_28 |.x{289}|))
(define-fun .def_213 () Bool (= .def_20 |.x{285}|))
(define-fun .def_212 () Bool (= .def_24 |.x{287}|))
(define-fun .def_214 () Bool (and .def_212 .def_213))
(define-fun .def_216 () Bool (and .def_214 .def_215))
(define-fun .def_218 () Bool (and .def_216 .def_217))
(define-fun .def_220 () Bool (and .def_218 .def_219))
(define-fun .def_222 () Bool (and .def_220 .def_221))
(define-fun .def_151 () Bool (= |.x{298}| 0))
(define-fun .def_152 () Bool (not .def_151))
(define-fun .def_144 () (Array Int Int) (store |.x{83}| |.x{298}| 1))
(define-fun .def_145 () Bool (= |.x{280}| .def_144))
(define-fun .def_142 () Bool (= |.x{292}| 0))
(define-fun .def_139 () Int (select |.x{83}| |.x{298}|))
(define-fun .def_140 () Bool (= .def_139 0))
(define-fun .def_84 () Bool (= |.x{293}| |.x{298}|))
(define-fun .def_141 () Bool (and .def_84 .def_140))
(define-fun .def_143 () Bool (and .def_141 .def_142))
(define-fun .def_146 () Bool (and .def_143 .def_145))
(define-fun .def_85 () Bool (= |.x{296}| |.x{297}|))
(define-fun .def_147 () Bool (and .def_85 .def_146))
(define-fun .def_137 () Bool (<= |.x{279}| |.x{298}|))
(define-fun .def_138 () Bool (not .def_137))
(define-fun .def_148 () Bool (and .def_138 .def_147))
(define-fun .def_133 () (Array Int Int) (select .def_14 |.x{298}|))
(define-fun .def_134 () (Array Int Int) (store .def_133 |.x{292}| 0))
(define-fun .def_135 () (Array Int (Array Int Int)) (store .def_14 |.x{298}| .def_134))
(define-fun .def_136 () Bool (= |.x{282}| .def_135))
(define-fun .def_149 () Bool (and .def_136 .def_148))
(define-fun .def_87 () Bool (= |.x{293}| |.x{294}|))
(define-fun .def_150 () Bool (and .def_87 .def_149))
(define-fun .def_153 () Bool (and .def_150 .def_152))
(define-fun .def_131 () (Array Int Int) (store .def_22 |.x{298}| 4))
(define-fun .def_132 () Bool (= |.x{286}| .def_131))
(define-fun .def_154 () Bool (and .def_132 .def_153))
(define-fun .def_89 () (Array Int Int) (select |.x{282}| |.x{294}|))
(define-fun .def_90 () Int (select .def_89 |.x{297}|))
(define-fun .def_92 () Bool (= .def_90 |.x{145}|))
(define-fun .def_155 () Bool (and .def_92 .def_154))
(define-fun .def_94 () Bool (= |.x{292}| |.x{296}|))
(define-fun .def_156 () Bool (and .def_94 .def_155))
(define-fun .def_199 () Bool (or .def_48 .def_156))
(define-fun .def_200 () Bool (and .def_115 .def_199))
(define-fun .def_123 () (Array Int Int) (store .def_10 0 0))
(define-fun .def_124 () Bool (= |.x{83}| .def_123))
(define-fun .def_120 () Bool (= |.x{284}| 0))
(define-fun .def_119 () Bool (= |.x{288}| 0))
(define-fun .def_121 () Bool (and .def_119 .def_120))
(define-fun .def_125 () Bool (and .def_121 .def_124))
(define-fun .def_126 () Bool (or .def_48 .def_125))
(define-fun .def_201 () Bool (and .def_126 .def_200))
(define-fun .def_86 () Bool (and .def_84 .def_85))
(define-fun .def_88 () Bool (and .def_86 .def_87))
(define-fun .def_93 () Bool (and .def_88 .def_92))
(define-fun .def_95 () Bool (and .def_93 .def_94))
(define-fun .def_190 () Bool (or .def_48 .def_95))
(define-fun .def_44 () Int (! |.x{19}| :next |.x{297}|))
(define-fun .def_38 () Int (! |.x{16}| :next |.x{294}|))
(define-fun .def_73 () (Array Int Int) (select .def_14 .def_38))
(define-fun .def_74 () (Array Int Int) (store .def_73 .def_44 1))
(define-fun .def_75 () (Array Int (Array Int Int)) (store .def_14 .def_38 .def_74))
(define-fun .def_76 () Bool (= |.x{282}| .def_75))
(define-fun .def_77 () Bool (or .def_48 .def_76))
(define-fun .def_189 () Bool (and .def_50 .def_77))
(define-fun .def_191 () Bool (and .def_189 .def_190))
(define-fun .def_46 () Int (! |.x{20}| :next |.x{298}|))
(define-fun .def_55 () Bool (= .def_46 |.x{298}|))
(define-fun .def_192 () Bool (and .def_55 .def_191))
(define-fun .def_40 () Int (! |.x{17}| :next |.x{295}|))
(define-fun .def_54 () Bool (= .def_40 |.x{295}|))
(define-fun .def_193 () Bool (and .def_54 .def_192))
(define-fun .def_34 () Int (! |.x{14}| :next |.x{292}|))
(define-fun .def_61 () Bool (= .def_34 |.x{292}|))
(define-fun .def_194 () Bool (and .def_61 .def_193))
(define-fun .def_63 () Bool (= .def_26 |.x{288}|))
(define-fun .def_195 () Bool (and .def_63 .def_194))
(define-fun .def_65 () Bool (= .def_22 |.x{286}|))
(define-fun .def_196 () Bool (and .def_65 .def_195))
(define-fun .def_67 () Bool (= .def_18 |.x{284}|))
(define-fun .def_197 () Bool (and .def_67 .def_196))
(define-fun .def_69 () Bool (= .def_10 |.x{280}|))
(define-fun .def_198 () Bool (and .def_69 .def_197))
(define-fun .def_202 () Bool (or .def_198 .def_201))
(define-fun .def_102 () Bool (= |.x{145}| 1))
(define-fun .def_187 () Bool (or .def_48 .def_102))
(define-fun .def_32 () Int (! |.x{13}| :next |.x{291}|))
(define-fun .def_57 () Bool (= .def_32 |.x{291}|))
(define-fun .def_112 () Bool (and |.x{257}| .def_57))
(define-fun .def_188 () Bool (and .def_112 .def_187))
(define-fun .def_203 () Bool (and .def_188 .def_202))
(define-fun .def_204 () Bool (and .def_81 .def_203))
(define-fun .def_30 () Int (! |.x{12}| :next |.x{290}|))
(define-fun .def_185 () Bool (= .def_30 |.x{290}|))
(define-fun .def_36 () Int (! |.x{15}| :next |.x{293}|))
(define-fun .def_183 () Bool (= .def_36 |.x{293}|))
(define-fun .def_181 () Bool (= .def_38 |.x{294}|))
(define-fun .def_42 () Int (! |.x{18}| :next |.x{296}|))
(define-fun .def_179 () Bool (= .def_42 |.x{296}|))
(define-fun .def_177 () Bool (= .def_44 |.x{297}|))
(define-fun .def_172 () (Array Int Int) (store .def_10 .def_46 0))
(define-fun .def_173 () Bool (= |.x{280}| .def_172))
(define-fun .def_174 () Bool (or |.x{257}| .def_173))
(define-fun .def_169 () Bool (= |.x{291}| |.x{295}|))
(define-fun .def_170 () Bool (or |.x{257}| .def_169))
(define-fun .def_163 () Bool (and .def_54 .def_63))
(define-fun .def_164 () Bool (and .def_65 .def_163))
(define-fun .def_165 () Bool (and .def_67 .def_164))
(define-fun .def_166 () Bool (and .def_77 .def_165))
(define-fun .def_167 () Bool (and .def_52 .def_166))
(define-fun .def_168 () Bool (and .def_115 .def_167))
(define-fun .def_171 () Bool (and .def_168 .def_170))
(define-fun .def_175 () Bool (and .def_171 .def_174))
(define-fun .def_109 () Bool (= .def_48 |.x{257}|))
(define-fun .def_176 () Bool (and .def_109 .def_175))
(define-fun .def_178 () Bool (and .def_176 .def_177))
(define-fun .def_180 () Bool (and .def_178 .def_179))
(define-fun .def_182 () Bool (and .def_180 .def_181))
(define-fun .def_184 () Bool (and .def_182 .def_183))
(define-fun .def_186 () Bool (and .def_184 .def_185))
(define-fun .def_205 () Bool (or .def_186 .def_204))
(define-fun .def_206 () Bool (and |.loc{6}| .def_205))
(define-fun .def_157 () Bool (or |.x{257}| .def_156))
(define-fun .def_111 () Bool (not |.loc{6}|))
(define-fun .def_128 () Bool (and .def_57 .def_111))
(define-fun .def_103 () Bool (not .def_102))
(define-fun .def_104 () Bool (or |.x{257}| .def_103))
(define-fun .def_129 () Bool (and .def_104 .def_128))
(define-fun .def_158 () Bool (and .def_129 .def_157))
(define-fun .def_159 () Bool (and .def_115 .def_158))
(define-fun .def_160 () Bool (and .def_81 .def_159))
(define-fun .def_161 () Bool (and .def_126 .def_160))
(define-fun .def_162 () Bool (and .def_109 .def_161))
(define-fun .def_207 () Bool (or .def_162 .def_206))
(define-fun .def_113 () Bool (and .def_111 .def_112))
(define-fun .def_114 () Bool (and .def_48 .def_113))
(define-fun .def_116 () Bool (and .def_114 .def_115))
(define-fun .def_117 () Bool (and .def_81 .def_116))
(define-fun .def_127 () Bool (and .def_117 .def_126))
(define-fun .def_208 () Bool (or .def_127 .def_207))
(define-fun .def_209 () Bool (and |.loc{5}| .def_208))
(define-fun .def_96 () Bool (or |.x{257}| .def_95))
(define-fun .def_59 () Bool (not |.loc{5}|))
(define-fun .def_56 () Bool (and .def_54 .def_55))
(define-fun .def_58 () Bool (and .def_56 .def_57))
(define-fun .def_60 () Bool (and .def_58 .def_59))
(define-fun .def_62 () Bool (and .def_60 .def_61))
(define-fun .def_64 () Bool (and .def_62 .def_63))
(define-fun .def_97 () Bool (and .def_64 .def_96))
(define-fun .def_98 () Bool (and .def_65 .def_97))
(define-fun .def_99 () Bool (and .def_67 .def_98))
(define-fun .def_100 () Bool (and .def_69 .def_99))
(define-fun .def_101 () Bool (and .def_77 .def_100))
(define-fun .def_105 () Bool (and .def_101 .def_104))
(define-fun .def_106 () Bool (and .def_50 .def_105))
(define-fun .def_107 () Bool (and .def_81 .def_106))
(define-fun .def_108 () Bool (and |.loc{6}| .def_107))
(define-fun .def_110 () Bool (and .def_108 .def_109))
(define-fun .def_210 () Bool (or .def_110 .def_209))
(define-fun .def_66 () Bool (and .def_64 .def_65))
(define-fun .def_68 () Bool (and .def_66 .def_67))
(define-fun .def_70 () Bool (and .def_68 .def_69))
(define-fun .def_71 () Bool (and |.x{257}| .def_70))
(define-fun .def_78 () Bool (and .def_71 .def_77))
(define-fun .def_79 () Bool (and .def_48 .def_78))
(define-fun .def_80 () Bool (and .def_50 .def_79))
(define-fun .def_82 () Bool (and .def_80 .def_81))
(define-fun .def_83 () Bool (and |.loc{6}| .def_82))
(define-fun .def_211 () Bool (or .def_83 .def_210))
(define-fun .def_223 () Bool (! (and .def_211 .def_222) :trans true))
(define-fun .def_237 () Bool (and .def_50 .def_52))
(define-fun .def_238 () Bool (and .def_48 .def_237))
(define-fun .def_239 () Bool (! (not .def_238) :invar-property 0))
(assert true)
